cliques=[{59,0},{28,1},{56,2},{28,3},{72,4},{80,5},{72,6},{80,7},{80,8},{72,9},{28,10},{45,11},{28,12},{56,13},{28,14},{72,15},{80,16},{72,17},{80,18},{80,19},{72,20},{28,21},{83,22},{64,23},{65,24},{56,25},{56,26},{65,27},{28,59},{11,29},{59,30},{11,31},{46,32},{56,33},{46,34},{46,35},{56,36},{56,37},{46,38},{46,39},{46,40},{46,41},{42,46},{46,43},{56,44},{45,59},{28,46},{42,47},{28,48},{40,49},{28,50},{42,51},{94,52},{11,53},{27,54},{11,55},{56,94},{28,57},{45,58},{28,59},{45,60},{28,61},{45,62},{45,63},{45,64},{45,65},{45,66},{45,67},{28,68},{19,69},{19,70},{11,71},{72,46},{11,73},{19,74},{46,75},{11,76},{46,77},{11,78},{46,79},{80,19},{81,46},{82,46},{83,46},{46,84},{46,85},{46,86},{46,87},{46,88},{46,89},{90,46},{46,91},{19,92},{28,93},{56,94}];
nr_cliques=95;
